solution status: optimal solution found
objective value:                      185713.31859124
d11(0,0)                                            1 	(obj:0)
d11(1,1)                                            1 	(obj:0)
d11(2,4)                                            1 	(obj:0)
d11(2,5)                                            1 	(obj:0)
d11(2,7)                                            1 	(obj:0)
d11(2,8)                                            1 	(obj:0)
d11(2,10)                                           1 	(obj:0)
d11(2,11)                                           1 	(obj:0)
d11(3,13)                                           1 	(obj:0)
d11(3,14)                                           1 	(obj:0)
d11(3,16)                                           1 	(obj:0)
d11(3,17)                                           1 	(obj:0)
d11(3,19)                                           1 	(obj:0)
d11(3,20)                                           1 	(obj:0)
d11(3,22)                                           1 	(obj:0)
d11(3,23)                                           1 	(obj:0)
d11(3,25)                                           1 	(obj:0)
d11(3,26)                                           1 	(obj:0)
d11(3,28)                                           1 	(obj:0)
d11(3,29)                                           1 	(obj:0)
d11(3,31)                                           1 	(obj:0)
d11(3,32)                                           1 	(obj:0)
d11(3,34)                                           1 	(obj:0)
d11(3,35)                                           1 	(obj:0)
d11(3,37)                                           1 	(obj:0)
d11(3,38)                                           1 	(obj:0)
d11(4,40)                                           1 	(obj:0)
d11(4,41)                                           1 	(obj:0)
d11(4,42)                                           1 	(obj:0)
d11(4,43)                                           1 	(obj:0)
d11(4,44)                                           1 	(obj:0)
d11(4,45)                                           1 	(obj:0)
d11(4,46)                                           1 	(obj:0)
d11(4,47)                                           1 	(obj:0)
d11(4,48)                                           1 	(obj:0)
d11(4,49)                                           1 	(obj:0)
d11(4,50)                                           1 	(obj:0)
d11(4,51)                                           1 	(obj:0)
d11(4,52)                                           1 	(obj:0)
d11(4,53)                                           1 	(obj:0)
d11(4,54)                                           1 	(obj:0)
d11(4,55)                                           1 	(obj:0)
d11(4,56)                                           1 	(obj:0)
d11(4,57)                                           1 	(obj:0)
d11(4,58)                                           1 	(obj:0)
d11(4,59)                                           1 	(obj:0)
d11(4,60)                                           1 	(obj:0)
d11(4,61)                                           1 	(obj:0)
d11(4,62)                                           1 	(obj:0)
d11(4,63)                                           1 	(obj:0)
d11(4,64)                                           1 	(obj:0)
d11(4,65)                                           1 	(obj:0)
d11(4,66)                                           1 	(obj:0)
d11(4,67)                                           1 	(obj:0)
d11(4,68)                                           1 	(obj:0)
d11(4,69)                                           1 	(obj:0)
d11(4,70)                                           1 	(obj:0)
d11(4,71)                                           1 	(obj:0)
d11(4,72)                                           1 	(obj:0)
d11(4,73)                                           1 	(obj:0)
d11(4,74)                                           1 	(obj:0)
d11(4,75)                                           1 	(obj:0)
d11(4,76)                                           1 	(obj:0)
d11(4,77)                                           1 	(obj:0)
d11(4,78)                                           1 	(obj:0)
d11(4,79)                                           1 	(obj:0)
d11(4,80)                                           1 	(obj:0)
d11(4,81)                                           1 	(obj:0)
d11(4,82)                                           1 	(obj:0)
d11(4,83)                                           1 	(obj:0)
d11(4,84)                                           1 	(obj:0)
d11(4,85)                                           1 	(obj:0)
d11(4,86)                                           1 	(obj:0)
d11(4,87)                                           1 	(obj:0)
d11(4,88)                                           1 	(obj:0)
d11(4,89)                                           1 	(obj:0)
d11(4,90)                                           1 	(obj:0)
d11(4,91)                                           1 	(obj:0)
d11(4,92)                                           1 	(obj:0)
d11(4,93)                                           1 	(obj:0)
d11(4,94)                                           1 	(obj:0)
d11(4,95)                                           1 	(obj:0)
d11(4,96)                                           1 	(obj:0)
d11(4,97)                                           1 	(obj:0)
d11(4,98)                                           1 	(obj:0)
d11(4,99)                                           1 	(obj:0)
d11(4,100)                                          1 	(obj:0)
d11(4,101)                                          1 	(obj:0)
d11(4,102)                                          1 	(obj:0)
d11(4,103)                                          1 	(obj:0)
d11(4,104)                                          1 	(obj:0)
d11(4,105)                                          1 	(obj:0)
d11(4,106)                                          1 	(obj:0)
d11(4,107)                                          1 	(obj:0)
d11(4,108)                                          1 	(obj:0)
d11(4,109)                                          1 	(obj:0)
d11(4,110)                                          1 	(obj:0)
d11(4,111)                                          1 	(obj:0)
d11(4,112)                                          1 	(obj:0)
d11(4,113)                                          1 	(obj:0)
d11(4,114)                                          1 	(obj:0)
d11(4,115)                                          1 	(obj:0)
d11(4,116)                                          1 	(obj:0)
d11(4,117)                                          1 	(obj:0)
d11(4,118)                                          1 	(obj:0)
d11(4,119)                                          1 	(obj:0)
d11(4,120)                                          1 	(obj:0)
d12(1,3)                                            1 	(obj:0)
d12(2,6)                                            1 	(obj:0)
d12(2,9)                                            1 	(obj:0)
d12(3,15)                                           1 	(obj:0)
d12(3,18)                                           1 	(obj:0)
d12(3,21)                           0.999999999999995 	(obj:0)
d12(3,24)                                           1 	(obj:0)
d12(3,27)                           0.999999999999995 	(obj:0)
d12(3,30)                           0.999999999999995 	(obj:0)
d12(3,33)                                           1 	(obj:0)
d12(3,36)                           0.999999999999995 	(obj:0)
d12(3,39)                           0.999999999999995 	(obj:0)
d21(4,40)                                           1 	(obj:0)
d21(4,41)                                           1 	(obj:0)
d21(4,42)                                           1 	(obj:0)
d21(4,43)                                           1 	(obj:0)
d21(4,44)                                           1 	(obj:0)
d21(4,45)                                           1 	(obj:0)
d21(4,46)                                           1 	(obj:0)
d21(4,47)                                           1 	(obj:0)
d21(4,49)                                           1 	(obj:0)
d21(4,50)                                           1 	(obj:0)
d21(4,51)                                           1 	(obj:0)
d21(4,52)                                           1 	(obj:0)
d21(4,53)                                           1 	(obj:0)
d21(4,55)                                           1 	(obj:0)
d21(4,58)                                           1 	(obj:0)
d21(4,59)                                           1 	(obj:0)
d21(4,61)                                           1 	(obj:0)
d21(4,62)                                           1 	(obj:0)
d21(4,67)                                           1 	(obj:0)
d21(4,68)                                           1 	(obj:0)
d21(4,69)                                           1 	(obj:0)
d21(4,70)                                           1 	(obj:0)
d21(4,71)                                           1 	(obj:0)
d21(4,73)                                           1 	(obj:0)
d21(4,76)                                           1 	(obj:0)
d21(4,77)                                           1 	(obj:0)
d21(4,79)                                           1 	(obj:0)
d21(4,80)                                           1 	(obj:0)
d21(4,85)                                           1 	(obj:0)
d21(4,86)                                           1 	(obj:0)
d21(4,94)                                           1 	(obj:0)
d21(4,95)                                           1 	(obj:0)
d21(4,97)                                           1 	(obj:0)
d21(4,98)                                           1 	(obj:0)
d21(4,100)                                          1 	(obj:0)
d21(4,103)                                          1 	(obj:0)
d21(4,104)                                          1 	(obj:0)
d21(4,106)                                          1 	(obj:0)
d21(4,112)                                          1 	(obj:0)
STE(1,1)                             7697.23399666665 	(obj:0)
STE(0,0)                                         9450 	(obj:0)
STE(1,2)                                         8694 	(obj:0)
STE(1,3)                             9606.56333384999 	(obj:0)
STE(2,4)                             4918.99836006533 	(obj:0)
STE(2,5)                             5915.76436339862 	(obj:0)
STE(2,6)                             6941.23399666664 	(obj:0)
STE(2,7)                             5915.76436339868 	(obj:0)
STE(2,8)                             6912.53036673197 	(obj:0)
STE(2,9)                             7937.99999999999 	(obj:0)
STE(2,10)                            6828.32769724866 	(obj:0)
STE(2,11)                            7825.09370058196 	(obj:0)
STE(2,12)                            8850.56333384999 	(obj:0)
STE(3,13)                            2140.76272346409 	(obj:0)
STE(3,14)                            3137.52872679738 	(obj:0)
STE(3,15)                            4162.99836006535 	(obj:0)
STE(3,16)                            3137.52872679738 	(obj:0)
STE(3,17)                            4134.29473013067 	(obj:0)
STE(3,18)                            5159.76436339868 	(obj:0)
STE(3,19)                             4162.9983600654 	(obj:0)
STE(3,20)                            5159.76436339869 	(obj:0)
STE(3,21)                            6185.23399666664 	(obj:0)
STE(3,22)                            3137.52872679744 	(obj:0)
STE(3,23)                            4134.29473013073 	(obj:0)
STE(3,24)                            5159.76436339868 	(obj:0)
STE(3,25)                            4134.29473013073 	(obj:0)
STE(3,26)                            5131.06073346402 	(obj:0)
STE(3,27)                            6156.53036673197 	(obj:0)
STE(3,28)                            5159.76436339875 	(obj:0)
STE(3,29)                            6156.53036673197 	(obj:0)
STE(3,30)                            7181.99999999999 	(obj:0)
STE(3,31)                            4050.09206064742 	(obj:0)
STE(3,32)                            5046.85806398071 	(obj:0)
STE(3,33)                            6072.32769724866 	(obj:0)
STE(3,34)                            5046.85806398071 	(obj:0)
STE(3,35)                              6043.624067314 	(obj:0)
STE(3,36)                            7069.09370058196 	(obj:0)
STE(3,37)                            6072.32769724875 	(obj:0)
STE(3,38)                            7069.09370058204 	(obj:0)
STE(3,39)                            8094.56333384999 	(obj:0)
STE(4,40)                           -3070.76759326788 	(obj:0)
STE(4,41)                           -2074.00158993459 	(obj:0)
STE(4,42)                           -856.549386601213 	(obj:0)
STE(4,43)                           -2074.00158993459 	(obj:0)
STE(4,44)                            -1077.2355866013 	(obj:0)
STE(4,45)                            140.216616732077 	(obj:0)
STE(4,46)                           -1048.53195666662 	(obj:0)
STE(4,47)                           -51.7659533333286 	(obj:0)
STE(4,48)                            1165.68625000005 	(obj:0)
STE(4,49)                           -2074.00158993459 	(obj:0)
STE(4,50)                            -1077.2355866013 	(obj:0)
STE(4,51)                            140.216616732077 	(obj:0)
STE(4,52)                            -1077.2355866013 	(obj:0)
STE(4,53)                           -80.4695832680096 	(obj:0)
STE(4,54)                            1136.98262006537 	(obj:0)
STE(4,55)                            -51.765953333291 	(obj:0)
STE(4,56)                                   945.00005 	(obj:0)
STE(4,57)                            2162.45225333338 	(obj:0)
STE(4,58)                           -1048.53195666657 	(obj:0)
STE(4,59)                           -51.7659533332807 	(obj:0)
STE(4,60)                             1165.6862500001 	(obj:0)
STE(4,61)                           -51.7659533332801 	(obj:0)
STE(4,62)                            945.000050000011 	(obj:0)
STE(4,63)                            2162.45225333339 	(obj:0)
STE(4,64)                             973.70367993467 	(obj:0)
STE(4,65)                            1970.46968326796 	(obj:0)
STE(4,66)                            3187.92188660134 	(obj:0)
STE(4,67)                           -2074.00158993453 	(obj:0)
STE(4,68)                           -1077.23558660124 	(obj:0)
STE(4,69)                            140.216616732136 	(obj:0)
STE(4,70)                           -1077.23558660124 	(obj:0)
STE(4,71)                           -80.4695832679507 	(obj:0)
STE(4,72)                            1136.98262006543 	(obj:0)
STE(4,73)                            -51.765953333291 	(obj:0)
STE(4,74)                                   945.00005 	(obj:0)
STE(4,75)                            2162.45225333338 	(obj:0)
STE(4,76)                           -1077.23558660124 	(obj:0)
STE(4,77)                           -80.4695832679507 	(obj:0)
STE(4,78)                            1136.98262006543 	(obj:0)
STE(4,79)                           -80.4695832679501 	(obj:0)
STE(4,80)                            916.296420065341 	(obj:0)
STE(4,81)                            2133.74862339872 	(obj:0)
STE(4,82)                                   945.00005 	(obj:0)
STE(4,83)                            1941.76605333329 	(obj:0)
STE(4,84)                            3159.21825666667 	(obj:0)
STE(4,85)                           -51.7659533332199 	(obj:0)
STE(4,86)                            945.000050000071 	(obj:0)
STE(4,87)                            2162.45225333345 	(obj:0)
STE(4,88)                                   945.00005 	(obj:0)
STE(4,89)                            1941.76605333329 	(obj:0)
STE(4,90)                            3159.21825666667 	(obj:0)
STE(4,91)                            1970.46968326802 	(obj:0)
STE(4,92)                            2967.23568660131 	(obj:0)
STE(4,93)                            4184.68788993469 	(obj:0)
STE(4,94)                           -1161.43825608455 	(obj:0)
STE(4,95)                           -164.672252751255 	(obj:0)
STE(4,96)                            1052.77995058212 	(obj:0)
STE(4,97)                           -164.672252751255 	(obj:0)
STE(4,98)                            832.093750582036 	(obj:0)
STE(4,99)                            2049.54595391541 	(obj:0)
STE(4,100)                           860.797380516771 	(obj:0)
STE(4,101)                           1857.56338384999 	(obj:0)
STE(4,102)                           3075.01558718336 	(obj:0)
STE(4,103)                          -164.672252751255 	(obj:0)
STE(4,104)                           832.093750582036 	(obj:0)
STE(4,105)                           2049.54595391541 	(obj:0)
STE(4,106)                           832.093750582036 	(obj:0)
STE(4,107)                           1828.85975391533 	(obj:0)
STE(4,108)                            3046.3119572487 	(obj:0)
STE(4,109)                           1857.56338384999 	(obj:0)
STE(4,110)                           2854.32938718328 	(obj:0)
STE(4,111)                           4071.78159051666 	(obj:0)
STE(4,112)                           860.797380516777 	(obj:0)
STE(4,113)                           1857.56338385007 	(obj:0)
STE(4,114)                           3075.01558718345 	(obj:0)
STE(4,115)                           1857.56338385007 	(obj:0)
STE(4,116)                           2854.32938718336 	(obj:0)
STE(4,117)                           4071.78159051674 	(obj:0)
STE(4,118)                           2883.03301711802 	(obj:0)
STE(4,119)                           3879.79902045131 	(obj:0)
STE(4,120)                           5097.25122378469 	(obj:0)
y1(4,100)                             4009.9772850587 	(obj:0)
y1(4,101)                            3112.88788205881 	(obj:0)
y1(4,102)                            2017.18089905877 	(obj:0)
y1(4,103)                            4009.97728505877 	(obj:0)
y1(4,104)                            3112.88788205881 	(obj:0)
y1(4,105)                            2017.18089905877 	(obj:0)
y1(4,106)                            4009.97728505877 	(obj:0)
y1(4,107)                            3112.88788205881 	(obj:0)
y1(4,108)                            2017.18089905877 	(obj:0)
y1(4,109)                            4009.97728505877 	(obj:0)
y1(4,110)                            3112.88788205881 	(obj:0)
y1(4,111)                            2017.18089905877 	(obj:0)
y1(4,112)                            4009.97728505877 	(obj:0)
y1(4,113)                            3112.88788205881 	(obj:0)
y1(4,114)                            2017.18089905877 	(obj:0)
y1(4,115)                            4009.97728505877 	(obj:0)
y1(4,116)                            3112.88788205881 	(obj:0)
y1(4,117)                            2017.18089905877 	(obj:0)
y1(4,118)                            4009.97728505877 	(obj:0)
y1(4,119)                            3112.88788205881 	(obj:0)
y1(4,120)                            2017.18089905877 	(obj:0)
AVE(3)                                3399.3204933139 	(obj:0)
AVE(4)                               3353.21046544222 	(obj:0)
WG(3)                                 3399.3204933139 	(obj:10)
WG(4)                                3353.21046544222 	(obj:10)
BG(1)                                         3377.85 	(obj:10)
BG(2)                                4319.60782647059 	(obj:10)
BG(3)                                920.287333156653 	(obj:10)
BG(4)                                3201.05574074023 	(obj:10)
WB(1)                                3134.60043707458 	(obj:0)
AVE(1)                               3134.60043707458 	(obj:0)
WB(2)                                3326.45170866643 	(obj:0)
AVE(2)                               3326.45170866643 	(obj:0)
y1(1,1)                              897.089403000015 	(obj:0)
y1(2,4)                              1820.01207294119 	(obj:0)
y1(2,5)                              922.922669941228 	(obj:0)
y1(2,7)                              1820.01207294119 	(obj:0)
y1(2,8)                              922.922669941228 	(obj:0)
y1(2,10)                             1820.01207294119 	(obj:0)
y1(2,11)                             922.922669941228 	(obj:0)
y1(3,13)                             1820.01207294112 	(obj:0)
y1(3,14)                             922.922669941155 	(obj:0)
y1(3,16)                             1820.01207294112 	(obj:0)
y1(3,17)                             922.922669941155 	(obj:0)
y1(3,19)                             1820.01207294112 	(obj:0)
y1(3,20)                             922.922669941155 	(obj:0)
y1(3,22)                             1820.01207294112 	(obj:0)
y1(3,23)                             922.922669941155 	(obj:0)
y1(3,25)                             1820.01207294112 	(obj:0)
y1(3,26)                             922.922669941155 	(obj:0)
y1(3,28)                             1820.01207294112 	(obj:0)
y1(3,29)                              922.92266994122 	(obj:0)
y1(3,31)                             1820.01207294112 	(obj:0)
y1(3,32)                             922.922669941155 	(obj:0)
y1(3,34)                             1820.01207294112 	(obj:0)
y1(3,35)                             922.922669941155 	(obj:0)
y1(3,37)                             1820.01207294112 	(obj:0)
y1(3,38)                             922.922669941155 	(obj:0)
y1(4,40)                             4009.97728505877 	(obj:0)
y1(4,41)                             3112.88788205881 	(obj:0)
y1(4,42)                             2017.18089905877 	(obj:0)
y1(4,43)                             4009.97728505877 	(obj:0)
y1(4,44)                             3112.88788205881 	(obj:0)
y1(4,45)                             2017.18089905877 	(obj:0)
y1(4,46)                             4009.97728505877 	(obj:0)
y1(4,47)                             3112.88788205881 	(obj:0)
y1(4,48)                             2017.18089905877 	(obj:0)
y1(4,49)                             4009.97728505877 	(obj:0)
y1(4,50)                             3112.88788205881 	(obj:0)
y1(4,51)                             2017.18089905877 	(obj:0)
y1(4,52)                             4009.97728505877 	(obj:0)
y1(4,53)                             3112.88788205881 	(obj:0)
y1(4,54)                             2017.18089905877 	(obj:0)
y1(4,55)                             4009.97728505877 	(obj:0)
y1(4,56)                             3112.88788205881 	(obj:0)
y1(4,57)                             2017.18089905877 	(obj:0)
y1(4,58)                             4009.97728505877 	(obj:0)
y1(4,59)                             3112.88788205881 	(obj:0)
y1(4,60)                             2017.18089905877 	(obj:0)
y1(4,61)                             4009.97728505877 	(obj:0)
y1(4,62)                             3112.88788205881 	(obj:0)
y1(4,63)                             2017.18089905877 	(obj:0)
y1(4,64)                             4009.97728505877 	(obj:0)
y1(4,65)                             3112.88788205881 	(obj:0)
y1(4,66)                             2017.18089905877 	(obj:0)
y1(4,67)                             4009.97728505877 	(obj:0)
y1(4,68)                             3112.88788205881 	(obj:0)
y1(4,69)                             2017.18089905877 	(obj:0)
y1(4,70)                             4009.97728505877 	(obj:0)
y1(4,71)                             3112.88788205881 	(obj:0)
y1(4,72)                             2017.18089905877 	(obj:0)
y1(4,73)                             4009.97728505877 	(obj:0)
y1(4,74)                             3112.88788205881 	(obj:0)
y1(4,75)                             2017.18089905877 	(obj:0)
y1(4,76)                             4009.97728505877 	(obj:0)
y1(4,77)                             3112.88788205881 	(obj:0)
y1(4,78)                             2017.18089905877 	(obj:0)
y1(4,79)                             4009.97728505877 	(obj:0)
y1(4,80)                             3112.88788205881 	(obj:0)
y1(4,81)                             2017.18089905877 	(obj:0)
y1(4,82)                             4009.97728505877 	(obj:0)
y1(4,83)                             3112.88788205881 	(obj:0)
y1(4,84)                             2017.18089905877 	(obj:0)
y1(4,85)                             4009.97728505877 	(obj:0)
y1(4,86)                             3112.88788205881 	(obj:0)
y1(4,87)                             2017.18089905877 	(obj:0)
y1(4,88)                             4009.97728505877 	(obj:0)
y1(4,89)                             3112.88788205881 	(obj:0)
y1(4,90)                             2017.18089905877 	(obj:0)
y1(4,91)                             4009.97728505877 	(obj:0)
y1(4,92)                             3112.88788205881 	(obj:0)
y1(4,93)                             2017.18089905877 	(obj:0)
y1(4,94)                             4009.97728505877 	(obj:0)
y1(4,95)                             3112.88788205881 	(obj:0)
y1(4,96)                             2017.18089905877 	(obj:0)
y1(4,97)                             4009.97728505877 	(obj:0)
y1(4,98)                             3112.88788205881 	(obj:0)
y1(4,99)                             2017.18089905877 	(obj:0)
y2(1,3)                              960.592982999986 	(obj:0)
